BAYES
196
2 2 2 2 2 2 2 2 2 2 2 2 2 2 2 2 2 2 2 2 2 2 2 2 2 2 2 2 2 2 2 2 2 2 2 2 2 2 2 2 2 2 2 2 2 2 2 2 2 2 2 2 2 2 2 2 2 2 2 2 2 2 2 2 2 2 2 2 2 2 2 2 2 2 2 2 2 2 2 2 2 2 2 2 2 2 2 2 2 2 2 2 2 2 2 2 2 2 2 2 2 2 2 2 2 2 2 2 2 2 2 2 2 2 2 2 2 2 2 2 2 2 2 2 2 2 2 2 2 2 2 2 2 2 2 2 2 2 2 2 2 2 2 2 2 2 2 2 2 2 2 2 2 2 2 2 2 2 2 2 2 2 2 2 2 2 2 2 2 2 2 2 2 2 2 2 2 2 2 2 2 2 2 2 2 2 2 2 2 2 2 2 2 2 2 2
196
3 1 14 0
3 2 15 1
3 3 16 2
3 4 17 3
3 5 18 4
3 6 19 5
3 7 20 6
3 8 21 7
3 9 22 8
3 10 23 9
3 11 24 10
3 12 25 11
3 13 26 12
2 14 13
3 15 28 14
3 16 29 15
3 17 30 16
3 18 31 17
3 19 32 18
3 20 33 19
3 21 34 20
3 22 35 21
3 23 36 22
3 24 37 23
3 25 38 24
3 26 39 25
3 27 40 26
2 28 27
3 29 42 28
3 30 43 29
3 31 44 30
3 32 45 31
3 33 46 32
3 34 47 33
3 35 48 34
3 36 49 35
3 37 50 36
3 38 51 37
3 39 52 38
3 40 53 39
3 41 54 40
2 42 41
3 43 56 42
3 44 57 43
3 45 58 44
3 46 59 45
3 47 60 46
3 48 61 47
3 49 62 48
3 50 63 49
3 51 64 50
3 52 65 51
3 53 66 52
3 54 67 53
3 55 68 54
2 56 55
3 57 70 56
3 58 71 57
3 59 72 58
3 60 73 59
3 61 74 60
3 62 75 61
3 63 76 62
3 64 77 63
3 65 78 64
3 66 79 65
3 67 80 66
3 68 81 67
3 69 82 68
2 70 69
3 71 84 70
3 72 85 71
3 73 86 72
3 74 87 73
3 75 88 74
3 76 89 75
3 77 90 76
3 78 91 77
3 79 92 78
3 80 93 79
3 81 94 80
3 82 95 81
3 83 96 82
2 84 83
3 85 98 84
3 86 99 85
3 87 100 86
3 88 101 87
3 89 102 88
3 90 103 89
3 91 104 90
3 92 105 91
3 93 106 92
3 94 107 93
3 95 108 94
3 96 109 95
3 97 110 96
2 98 97
3 99 112 98
3 100 113 99
3 101 114 100
3 102 115 101
3 103 116 102
3 104 117 103
3 105 118 104
3 106 119 105
3 107 120 106
3 108 121 107
3 109 122 108
3 110 123 109
3 111 124 110
2 112 111
3 113 126 112
3 114 127 113
3 115 128 114
3 116 129 115
3 117 130 116
3 118 131 117
3 119 132 118
3 120 133 119
3 121 134 120
3 122 135 121
3 123 136 122
3 124 137 123
3 125 138 124
2 126 125
3 127 140 126
3 128 141 127
3 129 142 128
3 130 143 129
3 131 144 130
3 132 145 131
3 133 146 132
3 134 147 133
3 135 148 134
3 136 149 135
3 137 150 136
3 138 151 137
3 139 152 138
2 140 139
3 141 154 140
3 142 155 141
3 143 156 142
3 144 157 143
3 145 158 144
3 146 159 145
3 147 160 146
3 148 161 147
3 149 162 148
3 150 163 149
3 151 164 150
3 152 165 151
3 153 166 152
2 154 153
3 155 168 154
3 156 169 155
3 157 170 156
3 158 171 157
3 159 172 158
3 160 173 159
3 161 174 160
3 162 175 161
3 163 176 162
3 164 177 163
3 165 178 164
3 166 179 165
3 167 180 166
2 168 167
3 169 182 168
3 170 183 169
3 171 184 170
3 172 185 171
3 173 186 172
3 174 187 173
3 175 188 174
3 176 189 175
3 177 190 176
3 178 191 177
3 179 192 178
3 180 193 179
3 181 194 180
2 182 181
2 196 182
2 197 183
2 198 184
2 199 185
2 200 186
2 201 187
2 202 188
2 203 189
2 204 190
2 205 191
2 206 192
2 207 193
2 208 194
1  195
8
1 0 0 1 0 1 0 1
8
0 1 1 0 0 1 1 0
8
1 0 0 1 0 1 1 0
8
1 0 0 1 0 1 1 0
8
1 0 0 1 0 1 1 0
8
0 1 1 0 1 0 0 1
8
0 1 1 0 0 1 0 1
8
0 1 1 0 1 0 0 1
8
1 0 0 1 1 0 1 0
8
0 1 1 0 1 0 0 1
8
0 1 0 1 1 0 1 0
8
1 0 0 1 1 0 1 0
8
1 0 1 0 1 0 1 0
4
0 1 1 0
8
1 0 0 1 0 1 0 1
8
0 1 0 1 0 1 1 0
8
0 1 0 1 0 1 1 0
8
0.29094378562151724 0.7090562143784828 0.2960653587804151 0.7039346412195848 0.3381523422474502 0.6618476577525498 0.09643410552172711 0.9035658944782728
8
1 0 0 1 1 0 1 0
8
1 0 0 1 1 0 0 1
8
0 1 1 0 0 1 1 0
8
0.48628596997463375 0.5137140300253662 0.6000897680987436 0.39991023190125646 0.8350638701951748 0.1649361298048252 0.2322934774337578 0.7677065225662422
8
1 0 1 0 1 0 1 0
8
0 1 0 1 1 0 0 1
8
0 1 1 0 0 1 0 1
8
1 0 1 0 1 0 1 0
8
0 1 1 0 0 1 0 1
4
0 1 0 1
8
0.3830698877703893 0.6169301122296107 0.4057420260219154 0.5942579739780847 0.63762116004375 0.3623788399562499 0.5920946011640923 0.40790539883590776
8
1 0 0 1 1 0 1 0
8
1 0 1 0 1 0 1 0
8
0 1 0 1 1 0 1 0
8
0 1 0 1 1 0 0 1
8
1 0 1 0 0 1 0 1
8
1 0 1 0 1 0 0 1
8
0 1 1 0 0 1 0 1
8
0 1 0 1 0 1 1 0
8
0 1 0 1 1 0 1 0
8
1 0 0 1 1 0 1 0
8
0.8918221111695994 0.10817788883040053 0.3019819730809871 0.6980180269190128 0.3223353502013286 0.6776646497986715 0.6400003762014547 0.35999962379854544
8
0.6780939312282237 0.3219060687717763 0.2811676544700806 0.7188323455299194 0.5490281992610578 0.45097180073894216 0.23589129966979494 0.7641087003302051
4
0.056297958636111485 0.9437020413638885 0.30607981079782304 0.6939201892021769
8
0 1 1 0 0 1 0 1
8
1 0 0 1 0 1 1 0
8
1 0 1 0 0 1 1 0
8
1 0 0 1 0 1 0 1
8
1 0 1 0 1 0 0 1
8
1 0 0 1 1 0 0 1
8
0 1 1 0 0 1 0 1
8
0 1 1 0 1 0 0 1
8
0 1 1 0 0 1 0 1
8
0 1 0 1 1 0 0 1
8
0.5036247619444258 0.4963752380555742 0.29494883844481834 0.7050511615551815 0.09287447214482553 0.9071255278551745 0.7486991574542401 0.25130084254575996
8
1 0 1 0 0 1 1 0
8
1 0 1 0 1 0 1 0
4
0 1 1 0
8
1 0 0 1 1 0 0 1
8
1 0 0 1 0 1 1 0
8
1 0 1 0 0 1 0 1
8
1 0 0 1 0 1 0 1
8
0 1 0 1 1 0 1 0
8
0 1 0 1 0 1 1 0
8
1 0 1 0 1 0 1 0
8
0 1 1 0 1 0 0 1
8
0 1 1 0 0 1 0 1
8
0.6522621440567281 0.3477378559432719 0.8376492286952834 0.16235077130471667 0.3349201433222756 0.6650798566777244 0.499872379618432 0.5001276203815679
8
1 0 0 1 1 0 0 1
8
0 1 0 1 1 0 0 1
8
0 1 1 0 0 1 0 1
4
1 0 0 1
8
1 0 0 1 1 0 1 0
8
0 1 0 1 1 0 1 0
8
1 0 0 1 0 1 1 0
8
0 1 0 1 1 0 1 0
8
1 0 0 1 0 1 1 0
8
0.3602292011407029 0.6397707988592971 0.8601309697745372 0.13986903022546288 0.7130525429738013 0.2869474570261988 0.3195633756467881 0.680436624353212
8
1 0 1 0 1 0 1 0
8
1 0 0 1 0 1 1 0
8
0 1 1 0 0 1 0 1
8
0 1 0 1 1 0 1 0
8
0 1 0 1 0 1 1 0
8
0 1 1 0 0 1 1 0
8
0 1 0 1 1 0 1 0
4
1 0 0 1
8
0.6795555305372896 0.3204444694627105 0.5003040540415042 0.49969594595849565 0.5696126850256864 0.4303873149743136 0.2749054113554617 0.7250945886445382
8
1 0 0 1 1 0 1 0
8
1 0 0 1 1 0 1 0
8
0 1 1 0 0 1 0 1
8
0 1 1 0 1 0 1 0
8
1 0 0 1 0 1 1 0
8
0.22887553033990943 0.7711244696600905 0.4627919605646912 0.5372080394353088 0.07788529429530094 0.922114705704699 0.26896704465065696 0.731032955349343
8
1 0 0 1 1 0 0 1
8
1 0 1 0 1 0 0 1
8
1 0 1 0 1 0 1 0
8
0 1 0 1 1 0 0 1
8
1 0 0 1 1 0 1 0
8
1 0 1 0 1 0 0 1
4
1 0 1 0
8
1 0 1 0 0 1 1 0
8
1 0 1 0 1 0 0 1
8
0 1 1 0 0 1 1 0
8
1 0 1 0 0 1 0 1
8
0.35877530653720663 0.6412246934627933 0.5271986809383581 0.4728013190616419 0.34171501035016705 0.658284989649833 0.33331972620922495 0.666680273790775
8
0 1 0 1 0 1 0 1
8
0 1 1 0 0 1 1 0
8
0 1 0 1 1 0 0 1
8
1 0 0 1 1 0 1 0
8
0.8053936101230138 0.1946063898769862 0.5667115726530026 0.4332884273469974 0.40873873191100274 0.5912612680889973 0.3421078258822661 0.6578921741177339
8
1 0 0 1 0 1 0 1
8
0 1 1 0 1 0 0 1
8
1 0 0 1 1 0 1 0
4
1 0 0 1
8
1 0 1 0 1 0 0 1
8
0 1 0 1 1 0 0 1
8
0 1 1 0 0 1 0 1
8
0 1 0 1 1 0 0 1
8
0 1 0 1 0 1 1 0
8
1 0 1 0 1 0 1 0
8
1 0 0 1 1 0 1 0
8
0.5456592839668902 0.45434071603310966 0.4805022714920049 0.5194977285079951 0.4479406966137519 0.5520593033862481 0.4027934996012827 0.5972065003987173
8
0 1 0 1 1 0 0 1
8
0 1 1 0 1 0 1 0
8
1 0 0 1 0 1 0 1
8
0.36448993308018357 0.6355100669198165 0.541562118644558 0.4584378813554419 0.11823106769217429 0.8817689323078257 0.5280743012239871 0.4719256987760129
8
1 0 1 0 0 1 0 1
4
1 0 1 0
8
1 0 1 0 1 0 1 0
8
0 1 0 1 0 1 0 1
8
0 1 1 0 1 0 1 0
8
0 1 0 1 0 1 0 1
8
0 1 0 1 1 0 0 1
8
1 0 1 0 0 1 1 0
8
0 1 0 1 0 1 0 1
8
0 1 0 1 1 0 1 0
8
0 1 0 1 1 0 0 1
8
0 1 1 0 0 1 1 0
8
0 1 1 0 0 1 0 1
8
0 1 1 0 0 1 0 1
8
0 1 1 0 1 0 0 1
4
1 0 1 0
8
1 0 1 0 0 1 0 1
8
0.4650981894183288 0.5349018105816712 0.3765622652207226 0.6234377347792774 0.2795450806025779 0.7204549193974221 0.6665926429861335 0.33340735701386653
8
1 0 1 0 0 1 0 1
8
0.34065101399364733 0.6593489860063526 0.5205314550236123 0.4794685449763877 0.1768223154839059 0.823177684516094 0.5463812808510283 0.45361871914897167
8
1 0 0 1 0 1 0 1
8
1 0 1 0 0 1 0 1
8
1 0 1 0 1 0 0 1
8
0 1 0 1 1 0 1 0
8
1 0 1 0 1 0 1 0
8
0 1 0 1 1 0 0 1
8
1 0 0 1 1 0 1 0
8
0 1 0 1 0 1 0 1
8
0 1 1 0 1 0 0 1
4
1 0 1 0
8
0 1 1 0 0 1 0 1
8
1 0 1 0 0 1 1 0
8
1 0 1 0 0 1 1 0
8
1 0 1 0 1 0 0 1
8
0 1 0 1 0 1 0 1
8
1 0 1 0 1 0 1 0
8
0.42342513516338626 0.5765748648366137 0.33939971572539523 0.6606002842746047 0.19185356784447674 0.8081464321555234 0.1047782046535795 0.8952217953464205
8
0 1 0 1 0 1 1 0
8
0 1 0 1 0 1 0 1
8
1 0 1 0 0 1 1 0
8
0.4905995514488879 0.5094004485511121 0.5080609037132725 0.4919390962867275 0.3453976268539326 0.6546023731460674 0.4848943286749065 0.5151056713250934
8
0 1 1 0 0 1 1 0
8
1 0 1 0 1 0 1 0
4
0 1 0 1
8
0 1 1 0 0 1 1 0
8
1 0 1 0 1 0 1 0
8
0.6041968801658735 0.3958031198341265 0.6151635847048785 0.3848364152951214 0.6781806344773743 0.3218193655226257 0.3295589676888967 0.6704410323111034
8
1 0 0 1 0 1 0 1
8
0 1 1 0 0 1 1 0
8
0 1 0 1 1 0 0 1
8
1 0 1 0 0 1 0 1
8
1 0 0 1 1 0 0 1
8
1 0 1 0 1 0 0 1
8
0 1 1 0 0 1 0 1
8
0 1 0 1 0 1 1 0
8
1 0 0 1 0 1 0 1
8
1 0 1 0 1 0 1 0
4
1 0 0 1
4
1 0 1 0
4
1 0 0 1
4
0 1 0 1
4
0 1 0 1
4
1 0 0 1
4
1 0 1 0
4
0 1 1 0
4
1 0 0 1
4
1 0 1 0
4
0 1 0 1
4
0 1 1 0
4
1 0 0 1
4
0 1 0 1
2
0 1
